c A sample .txt file.
p cnf 350 1825
-1 -41 -13 100 300 0
-14 -42 -16 0
-14 -37 -17 0
-14 -38 -18 0
-14 -39 -19 0
-14 -41 -21 0
-22 -42 -23 0
-22 -36 -24 0
-22 -38 -25 0
-22 -39 -26 0
-22 -40 -27 0
-22 -41 -28 -110 99 155 0
-29 -42 -30 0
-29 -36 -31 0
-29 -37 -32 0
-29 -39 -33 0
-29 -40 -34 0
-29 -41 -35 99 100 0
-42 43 0
-36 44 0
-37 45 0
-38 46 0
-15 -43 0
-2 -44 0
-4 -45 0
-6 -46 0
-1 -36 47 0
-1 -37 48 0
-1 -38 49 0
-1 -39 50 0
-1 -40 51 0
-1 -41 52 0
-14 -42 53 0
-14 -37 54 0
-14 -38 55 0
-14 -39 56 0
-14 -40 57 0
-14 -41 58 0
-22 -42 59 0
-22 -36 60 0
-22 -38 61 0
-22 -39 62 0
-22 -40 63 0
-22 -41 64 0
-29 -42 65 0
-29 -36 66 0
-29 -37 67 0
-29 -39 68 0
-29 -40 69 0
-29 -41 70 0
-1 71 0
-14 72 0
-22 73 0
-29 74 0
-15 71 0
-2 72 0
-4 73 0
-6 74 0
15 -71 43 0
2 -72 44 0
4 -73 45 0
6 -74 46 0
1 -47 3 0
1 -48 5 0
1 -49 7 0
1 -50 9 0
1 -51 11 0
1 -52 13 0
14 -53 16 0
14 -54 17 0
14 -55 18 0
14 -56 19 0
14 -57 20 0
14 -58 21 0
22 -59 23 0
22 -60 24 0
22 -61 25 0
22 -62 26 0
22 -63 27 0
22 -64 28 0
29 -65 30 0
29 -66 31 0
29 -67 32 0
29 -68 33 0
29 -69 34 0
29 -70 35 0
42 71 -43 0
36 72 -44 0
37 73 -45 0
38 74 -46 0
1 47 -3 0
1 48 -5 0
1 49 -7 0
1 50 -9 0
1 51 -11 0
1 52 -13 0
14 53 -16 0
14 54 -17 0
14 55 -18 0
14 56 -19 0
14 57 -20 0
14 58 -21 0
22 59 -23 0
22 60 -24 0
22 61 -25 0
22 62 -26 0
22 63 -27 0
22 64 -28 0
29 65 -30 0
29 66 -31 0
29 67 -32 0
29 68 -33 0
29 69 -34 0
29 70 -35 0
2 47 -3 0
4 48 -5 0
6 49 -7 0
8 50 -9 0
10 51 -11 0
12 52 -13 0
15 53 -16 0
4 54 -17 0
6 55 -18 0
8 56 -19 0
10 57 -20 0
12 58 -21 0
15 59 -23 0
2 60 -24 0
6 61 -25 0
8 62 -26 0
10 63 -27 0
12 64 -28 0
15 65 -30 0
2 66 -31 0
4 67 -32 0
8 68 -33 0
10 69 -34 0
12 70 -35 0
1 14 22 29 0
42 36 37 38 39 40 41 0
15 2 4 6 8 10 12 0
-1 -14 0
-1 -22 0
-1 -29 0
-14 -1 0
-14 -22 0
-14 -29 0
-22 -1 0
-22 -14 0
-22 -29 0
-29 -1 0
-29 -14 0
-29 -22 0
-42 -36 0
-42 -37 0
-42 -38 0
-42 -39 0
-42 -40 0
-42 -41 0
-36 -42 0
-36 -37 0
-36 -38 0
-36 -39 0
-36 -40 0
-36 -41 0
-37 -42 0
-37 -36 0
-37 -38 0
-37 -39 0
-37 -40 0
-37 -41 0
-38 -42 0
-38 -36 0
-38 -37 0
-38 -39 0
-38 -40 0
-38 -41 0
-39 -42 0
-39 -36 0
-39 -37 0
-39 -38 0
-39 -40 0
-39 -41 0
-40 -42 0
-40 -36 0
-40 -37 0
-40 -38 0
-40 -39 0
-40 -41 0
-41 -42 0
-41 -36 0
-41 -37 0
-41 -38 0
-41 -39 0
-41 -40 0
-15 -2 0
-15 -4 0
-15 -6 0
-15 -8 0
-15 -10 0
-15 -12 0
-2 -15 0
-2 -4 0
-2 -6 0
-2 -8 0
-2 -10 0
-2 -12 0
-4 -15 0
-4 -2 0
-4 -6 0
-4 -8 0
-4 -10 0
-4 -12 0
-6 -15 0
-6 -2 0
-6 -4 0
-6 -8 0
-6 -10 0
-6 -12 0
-8 -15 0
-8 -2 0
-8 -4 0
-8 -6 0
-8 -10 0
-8 -12 0
-10 -15 0
-10 -2 0
-10 -4 0
-10 -6 0
-10 -8 0
-10 -12 0
-12 -15 0
-12 -2 0
-12 -4 0
-12 -6 0
-12 -8 0
-12 -10 0
-1 -42 0
-14 -36 0
-22 -37 0
-29 -38 0
-1 -15 0
-14 -2 0
-22 -4 0
-29 -6 0
-42 -15 0
-36 -2 0
-37 -4 0
-38 -6 0
-39 -8 0
-40 -10 0
-41 -12 0
-75 -76 77 0
-75 -78 79 0
-75 -80 81 0
-75 -82 83 0
-75 -84 85 0
-75 -86 87 0
-88 -89 90 0
-88 -78 91 0
-88 -80 92 0
-88 -82 93 0
-88 -84 94 0
-88 -86 95 0
-96 -89 97 0
-96 -76 98 0
-96 -80 99 0
-96 -82 100 0
-96 -84 101 0
-96 -86 102 0
-103 -89 104 0
-103 -76 105 0
-103 -78 106 0
-103 -82 107 0
-103 -84 108 0
-103 -86 109 0
-75 -110 -77 0
-75 -111 -79 0
-75 -112 -81 0
-75 -113 -83 0
-75 -114 -85 0
-75 -115 -87 0
-88 -116 -90 0
-88 -111 -91 0
-88 -112 -92 0
-88 -113 -93 0
-88 -114 -94 0
-88 -115 -95 0
-96 -116 -97 0
-96 -110 -98 0
-96 -112 -99 0
-96 -113 -100 0
-96 -114 -101 0
-96 -115 -102 0
-103 -116 -104 0
-103 -110 -105 0
-103 -111 -106 0
-103 -113 -107 0
-103 -114 -108 0
-103 -115 -109 0
-116 117 0
-110 118 0
-111 119 0
-112 120 0
-89 -117 0
-76 -118 0
-78 -119 0
-80 -120 0
-75 -110 3 0
-75 -111 5 0
-75 -112 7 0
-75 -113 9 0
-75 -114 11 0
-75 -115 13 0
-88 -116 16 0
-88 -111 17 0
-88 -112 18 0
-88 -113 19 0
-88 -114 20 0
-88 -115 21 0
-96 -116 23 0
-96 -110 24 0
-96 -112 25 0
-96 -113 26 0
-96 -114 27 0
-96 -115 28 0
-103 -116 30 0
-103 -110 31 0
-103 -111 32 0
-103 -113 33 0
-103 -114 34 0
-103 -115 35 0
-75 43 0
-88 44 0
-96 45 0
-103 46 0
-89 43 0
-76 44 0
-78 45 0
-80 46 0
89 -43 117 0
76 -44 118 0
78 -45 119 0
80 -46 120 0
75 -3 77 0
75 -5 79 0
75 -7 81 0
75 -9 83 0
75 -11 85 0
75 -13 87 0
88 -16 90 0
88 -17 91 0
88 -18 92 0
88 -19 93 0
88 -20 94 0
88 -21 95 0
96 -23 97 0
96 -24 98 0
96 -25 99 0
96 -26 100 0
96 -27 101 0
96 -28 102 0
103 -30 104 0
103 -31 105 0
103 -32 106 0
103 -33 107 0
103 -34 108 0
103 -35 109 0
116 43 -117 0
110 44 -118 0
111 45 -119 0
112 46 -120 0
75 3 -77 0
75 5 -79 0
75 7 -81 0
75 9 -83 0
75 11 -85 0
75 13 -87 0
88 16 -90 0
88 17 -91 0
88 18 -92 0
88 19 -93 0
88 20 -94 0
88 21 -95 0
96 23 -97 0
96 24 -98 0
96 25 -99 0
96 26 -100 0
96 27 -101 0
96 28 -102 0
103 30 -104 0
103 31 -105 0
103 32 -106 0
103 33 -107 0
103 34 -108 0
103 35 -109 0
76 3 -77 0
78 5 -79 0
80 7 -81 0
82 9 -83 0
84 11 -85 0
86 13 -87 0
89 16 -90 0
78 17 -91 0
80 18 -92 0
82 19 -93 0
84 20 -94 0
86 21 -95 0
89 23 -97 0
76 24 -98 0
80 25 -99 0
82 26 -100 0
84 27 -101 0
86 28 -102 0
89 30 -104 0
76 31 -105 0
78 32 -106 0
82 33 -107 0
84 34 -108 0
86 35 -109 0
75 88 96 103 0
116 110 111 112 113 114 115 0
89 76 78 80 82 84 86 0
-75 -88 0
-75 -96 0
-75 -103 0
-88 -75 0
-88 -96 0
-88 -103 0
-96 -75 0
-96 -88 0
-96 -103 0
-103 -75 0
-103 -88 0
-103 -96 0
-116 -110 0
-116 -111 0
-116 -112 0
-116 -113 0
-116 -114 0
-116 -115 0
-110 -116 0
-110 -111 0
-110 -112 0
-110 -113 0
-110 -114 0
-110 -115 0
-111 -116 0
-111 -110 0
-111 -112 0
-111 -113 0
-111 -114 0
-111 -115 0
-112 -116 0
-112 -110 0
-112 -111 0
-112 -113 0
-112 -114 0
-112 -115 0
-113 -116 0
-113 -110 0
-113 -111 0
-113 -112 0
-113 -114 0
-113 -115 0
-114 -116 0
-114 -110 0
-114 -111 0
-114 -112 0
-114 -113 0
-114 -115 0
-115 -116 0
-115 -110 0
-115 -111 0
-115 -112 0
-115 -113 0
-115 -114 0
-89 -76 0
-89 -78 0
-89 -80 0
-89 -82 0
-89 -84 0
-89 -86 0
-76 -89 0
-76 -78 0
-76 -80 0
-76 -82 0
-76 -84 0
-76 -86 0
-78 -89 0
-78 -76 0
-78 -80 0
-78 -82 0
-78 -84 0
-78 -86 0
-80 -89 0
-80 -76 0
-80 -78 0
-80 -82 0
-80 -84 0
-80 -86 0
-82 -89 0
-82 -76 0
-82 -78 0
-82 -80 0
-82 -84 0
-82 -86 0
-84 -89 0
-84 -76 0
-84 -78 0
-84 -80 0
-84 -82 0
-84 -86 0
-86 -89 0
-86 -76 0
-86 -78 0
-86 -80 0
-86 -82 0
-86 -84 0
-75 -116 0
-88 -110 0
-96 -111 0
-103 -112 0
-75 -89 0
-88 -76 0
-96 -78 0
-103 -80 0
-116 -89 0
-110 -76 0
-111 -78 0
-112 -80 0
-113 -82 0
-114 -84 0
-115 -86 0
-121 -122 123 0
-121 -124 125 0
-121 -126 127 0
-121 -128 129 0
-121 -130 131 0
-121 -132 133 0
-134 -135 136 0
-134 -124 137 0
-134 -126 138 0
-134 -128 139 0
-134 -130 140 0
-134 -132 141 0
-142 -135 143 0
-142 -122 144 0
-142 -126 145 0
-142 -128 146 0
-142 -130 147 0
-142 -132 148 0
-149 -135 150 0
-149 -122 151 0
-149 -124 152 0
-149 -128 153 0
-149 -130 154 0
-149 -132 155 0
-121 -156 -123 0
-121 -157 -125 0
-121 -158 -127 0
-121 -159 -129 0
-121 -160 -131 0
-121 -161 -133 0
-134 -162 -136 0
-134 -157 -137 0
-134 -158 -138 0
-134 -159 -139 0
-134 -160 -140 0
-134 -161 -141 0
-142 -162 -143 0
-142 -156 -144 0
-142 -158 -145 0
-142 -159 -146 0
-142 -160 -147 0
-142 -161 -148 0
-149 -162 -150 0
-149 -156 -151 0
-149 -157 -152 0
-149 -159 -153 0
-149 -160 -154 0
-149 -161 -155 0
-162 163 0
-156 164 0
-157 165 0
-158 166 0
-135 -163 0
-122 -164 0
-124 -165 0
-126 -166 0
-121 -156 77 0
-121 -157 79 0
-121 -158 81 0
-121 -159 83 0
-121 -160 85 0
-121 -161 87 0
-134 -162 90 0
-134 -157 91 0
-134 -158 92 0
-134 -159 93 0
-134 -160 94 0
-134 -161 95 0
-142 -162 97 0
-142 -156 98 0
-142 -158 99 0
-142 -159 100 0
-142 -160 101 0
-142 -161 102 0
-149 -162 104 0
-149 -156 105 0
-149 -157 106 0
-149 -159 107 0
-149 -160 108 0
-149 -161 109 0
-121 117 0
-134 118 0
-142 119 0
-149 120 0
-135 117 0
-122 118 0
-124 119 0
-126 120 0
135 -117 163 0
122 -118 164 0
124 -119 165 0
126 -120 166 0
121 -77 123 0
121 -79 125 0
121 -81 127 0
121 -83 129 0
121 -85 131 0
121 -87 133 0
134 -90 136 0
134 -91 137 0
134 -92 138 0
134 -93 139 0
134 -94 140 0
134 -95 141 0
142 -97 143 0
142 -98 144 0
142 -99 145 0
142 -100 146 0
142 -101 147 0
142 -102 148 0
149 -104 150 0
149 -105 151 0
149 -106 152 0
149 -107 153 0
149 -108 154 0
149 -109 155 0
162 117 -163 0
156 118 -164 0
157 119 -165 0
158 120 -166 0
121 77 -123 0
121 79 -125 0
121 81 -127 0
121 83 -129 0
121 85 -131 0
121 87 -133 0
134 90 -136 0
134 91 -137 0
134 92 -138 0
134 93 -139 0
134 94 -140 0
134 95 -141 0
142 97 -143 0
142 98 -144 0
142 99 -145 0
142 100 -146 0
142 101 -147 0
142 102 -148 0
149 104 -150 0
149 105 -151 0
149 106 -152 0
149 107 -153 0
149 108 -154 0
149 109 -155 0
122 77 -123 0
124 79 -125 0
126 81 -127 0
128 83 -129 0
130 85 -131 0
132 87 -133 0
135 90 -136 0
124 91 -137 0
126 92 -138 0
128 93 -139 0
130 94 -140 0
132 95 -141 0
135 97 -143 0
122 98 -144 0
126 99 -145 0
128 100 -146 0
130 101 -147 0
132 102 -148 0
135 104 -150 0
122 105 -151 0
124 106 -152 0
128 107 -153 0
130 108 -154 0
132 109 -155 0
121 134 142 149 0
162 156 157 158 159 160 161 0
135 122 124 126 128 130 132 0
-121 -134 0
-121 -142 0
-121 -149 0
-134 -121 0
-134 -142 0
-134 -149 0
-142 -121 0
-142 -134 0
-142 -149 0
-149 -121 0
-149 -134 0
-149 -142 0
-162 -156 0
-162 -157 0
-162 -158 0
-162 -159 0
-162 -160 0
-162 -161 0
-156 -162 0
-156 -157 0
-156 -158 0
-156 -159 0
-156 -160 0
-156 -161 0
-157 -162 0
-157 -156 0
-157 -158 0
-157 -159 0
-157 -160 0
-157 -161 0
-158 -162 0
-158 -156 0
-158 -157 0
-158 -159 0
-158 -160 0
-158 -161 0
-159 -162 0
-159 -156 0
-159 -157 0
-159 -158 0
-159 -160 0
-159 -161 0
-160 -162 0
-160 -156 0
-160 -157 0
-160 -158 0
-160 -159 0
-160 -161 0
-161 -162 0
-161 -156 0
-161 -157 0
-161 -158 0
-161 -159 0
-161 -160 0
-135 -122 0
-135 -124 0
-135 -126 0
-135 -128 0
-135 -130 0
-135 -132 0
-122 -135 0
-122 -124 0
-122 -126 0
-122 -128 0
-122 -130 0
-122 -132 0
-124 -135 0
-124 -122 0
-124 -126 0
-124 -128 0
-124 -130 0
-124 -132 0
-126 -135 0
-126 -122 0
-126 -124 0
-126 -128 0
-126 -130 0
-126 -132 0
-128 -135 0
-128 -122 0
-128 -124 0
-128 -126 0
-128 -130 0
-128 -132 0
-130 -135 0
-130 -122 0
-130 -124 0
-130 -126 0
-130 -128 0
-130 -132 0
-132 -135 0
-132 -122 0
-132 -124 0
-132 -126 0
-132 -128 0
-132 -130 0
-121 -162 0
-134 -156 0
-142 -157 0
-149 -158 0
-121 -135 0
-134 -122 0
-142 -124 0
-149 -126 0
-162 -135 0
-156 -122 0
-157 -124 0
-158 -126 0
-159 -128 0
-160 -130 0
-161 -132 0
-167 -168 169 0
-167 -170 171 0
-167 -172 173 0
-167 -174 175 0
-167 -176 177 0
-167 -178 179 0
-180 -181 182 0
-180 -170 183 0
-180 -172 184 0
-180 -174 185 0
-180 -176 186 0
-180 -178 187 0
-188 -181 189 0
-188 -168 190 0
-188 -172 191 0
-188 -174 192 0
-188 -176 193 0
-188 -178 194 0
-195 -181 196 0
-195 -168 197 0
-195 -170 198 0
-195 -174 199 0
-195 -176 200 0
-195 -178 201 0
-167 -202 -169 0
-167 -203 -171 0
-167 -204 -173 0
-167 -205 -175 0
-167 -206 -177 0
-167 -207 -179 0
-180 -208 -182 0
-180 -203 -183 0
-180 -204 -184 0
-180 -205 -185 0
-180 -206 -186 0
-180 -207 -187 0
-188 -208 -189 0
-188 -202 -190 0
-188 -204 -191 0
-188 -205 -192 0
-188 -206 -193 0
-188 -207 -194 0
-195 -208 -196 0
-195 -202 -197 0
-195 -203 -198 0
-195 -205 -199 0
-195 -206 -200 0
-195 -207 -201 0
-208 209 0
-202 210 0
-203 211 0
-204 212 0
-181 -209 0
-168 -210 0
-170 -211 0
-172 -212 0
-167 -202 123 0
-167 -203 125 0
-167 -204 127 0
-167 -205 129 0
-167 -206 131 0
-167 -207 133 0
-180 -208 136 0
-180 -203 137 0
-180 -204 138 0
-180 -205 139 0
-180 -206 140 0
-180 -207 141 0
-188 -208 143 0
-188 -202 144 0
-188 -204 145 0
-188 -205 146 0
-188 -206 147 0
-188 -207 148 0
-195 -208 150 0
-195 -202 151 0
-195 -203 152 0
-195 -205 153 0
-195 -206 154 0
-195 -207 155 0
-167 163 0
-180 164 0
-188 165 0
-195 166 0
-181 163 0
-168 164 0
-170 165 0
-172 166 0
181 -163 209 0
168 -164 210 0
170 -165 211 0
172 -166 212 0
167 -123 169 0
167 -125 171 0
167 -127 173 0
167 -129 175 0
167 -131 177 0
167 -133 179 0
180 -136 182 0
180 -137 183 0
180 -138 184 0
180 -139 185 0
180 -140 186 0
180 -141 187 0
188 -143 189 0
188 -144 190 0
188 -145 191 0
188 -146 192 0
188 -147 193 0
188 -148 194 0
195 -150 196 0
195 -151 197 0
195 -152 198 0
195 -153 199 0
195 -154 200 0
195 -155 201 0
208 163 -209 0
202 164 -210 0
203 165 -211 0
204 166 -212 0
167 123 -169 0
167 125 -171 0
167 127 -173 0
167 129 -175 0
167 131 -177 0
167 133 -179 0
180 136 -182 0
180 137 -183 0
180 138 -184 0
180 139 -185 0
180 140 -186 0
180 141 -187 0
188 143 -189 0
188 144 -190 0
188 145 -191 0
188 146 -192 0
188 147 -193 0
188 148 -194 0
195 150 -196 0
195 151 -197 0
195 152 -198 0
195 153 -199 0
195 154 -200 0
195 155 -201 0
168 123 -169 0
170 125 -171 0
172 127 -173 0
174 129 -175 0
176 131 -177 0
178 133 -179 0
181 136 -182 0
170 137 -183 0
172 138 -184 0
174 139 -185 0
176 140 -186 0
178 141 -187 0
181 143 -189 0
168 144 -190 0
172 145 -191 0
174 146 -192 0
176 147 -193 0
178 148 -194 0
181 150 -196 0
168 151 -197 0
170 152 -198 0
174 153 -199 0
176 154 -200 0
178 155 -201 0
167 180 188 195 0
208 202 203 204 205 206 207 0
181 168 170 172 174 176 178 0
-167 -180 0
-167 -188 0
-167 -195 0
-180 -167 0
-180 -188 0
-180 -195 0
-188 -167 0
-188 -180 0
-188 -195 0
-195 -167 0
-195 -180 0
-195 -188 0
-208 -202 0
-208 -203 0
-208 -204 0
-208 -205 0
-208 -206 0
-208 -207 0
-202 -208 0
-202 -203 0
-202 -204 0
-202 -205 0
-202 -206 0
-202 -207 0
-203 -208 0
-203 -202 0
-203 -204 0
-203 -205 0
-203 -206 0
-203 -207 0
-204 -208 0
-204 -202 0
-204 -203 0
-204 -205 0
-204 -206 0
-204 -207 0
-205 -208 0
-205 -202 0
-205 -203 0
-205 -204 0
-205 -206 0
-205 -207 0
-206 -208 0
-206 -202 0
-206 -203 0
-206 -204 0
-206 -205 0
-206 -207 0
-207 -208 0
-207 -202 0
-207 -203 0
-207 -204 0
-207 -205 0
-207 -206 0
-181 -168 0
-181 -170 0
-181 -172 0
-181 -174 0
-181 -176 0
-181 -178 0
-168 -181 0
-168 -170 0
-168 -172 0
-168 -174 0
-168 -176 0
-168 -178 0
-170 -181 0
-170 -168 0
-170 -172 0
-170 -174 0
-170 -176 0
-170 -178 0
-172 -181 0
-172 -168 0
-172 -170 0
-172 -174 0
-172 -176 0
-172 -178 0
-174 -181 0
-174 -168 0
-174 -170 0
-174 -172 0
-174 -176 0
-174 -178 0
-176 -181 0
-176 -168 0
-176 -170 0
-176 -172 0
-176 -174 0
-176 -178 0
-178 -181 0
-178 -168 0
-178 -170 0
-178 -172 0
-178 -174 0
-178 -176 0
-167 -208 0
-180 -202 0
-188 -203 0
-195 -204 0
-167 -181 0
-180 -168 0
-188 -170 0
-195 -172 0
-208 -181 0
-202 -168 0
-203 -170 0
-204 -172 0
-205 -174 0
-206 -176 0
-207 -178 0
-213 -214 215 0
-213 -216 217 0
-213 -218 219 0
-213 -220 221 0
-213 -222 223 0
-213 -224 225 0
-226 -227 228 0
-226 -216 229 0
-226 -218 230 0
-226 -220 231 0
-226 -222 232 0
-226 -224 233 0
-234 -227 235 0
-234 -214 236 0
-234 -218 237 0
-234 -220 238 0
-234 -222 239 0
-234 -224 240 0
-241 -227 242 0
-241 -214 243 0
-241 -216 244 0
-241 -220 245 0
-241 -222 246 0
-241 -224 247 0
-213 -248 -215 0
-213 -249 -217 0
-213 -250 -219 0
-213 -251 -221 0
-213 -252 -223 0
-213 -253 -225 0
-226 -254 -228 0
-226 -249 -229 0
-226 -250 -230 0
-226 -251 -231 0
-226 -252 -232 0
-226 -253 -233 0
-234 -254 -235 0
-234 -248 -236 0
-234 -250 -237 0
-234 -251 -238 0
-234 -252 -239 0
-234 -253 -240 0
-241 -254 -242 0
-241 -248 -243 0
-241 -249 -244 0
-241 -251 -245 0
-241 -252 -246 0
-241 -253 -247 0
-254 255 0
-248 256 0
-249 257 0
-250 258 0
-227 -255 0
-214 -256 0
-216 -257 0
-218 -258 0
-213 -248 169 0
-213 -249 171 0
-213 -250 173 0
-213 -251 175 0
-213 -252 177 0
-213 -253 179 0
-226 -254 182 0
-226 -249 183 0
-226 -250 184 0
-226 -251 185 0
-226 -252 186 0
-226 -253 187 0
-234 -254 189 0
-234 -248 190 0
-234 -250 191 0
-234 -251 192 0
-234 -252 193 0
-234 -253 194 0
-241 -254 196 0
-241 -248 197 0
-241 -249 198 0
-241 -251 199 0
-241 -252 200 0
-241 -253 201 0
-213 209 0
-226 210 0
-234 211 0
-241 212 0
-227 209 0
-214 210 0
-216 211 0
-218 212 0
227 -209 255 0
214 -210 256 0
216 -211 257 0
218 -212 258 0
213 -169 215 0
213 -171 217 0
213 -173 219 0
213 -175 221 0
213 -177 223 0
213 -179 225 0
226 -182 228 0
226 -183 229 0
226 -184 230 0
226 -185 231 0
226 -186 232 0
226 -187 233 0
234 -189 235 0
234 -190 236 0
234 -191 237 0
234 -192 238 0
234 -193 239 0
234 -194 240 0
241 -196 242 0
241 -197 243 0
241 -198 244 0
241 -199 245 0
241 -200 246 0
241 -201 247 0
254 209 -255 0
248 210 -256 0
249 211 -257 0
250 212 -258 0
213 169 -215 0
213 171 -217 0
213 173 -219 0
213 175 -221 0
213 177 -223 0
213 179 -225 0
226 182 -228 0
226 183 -229 0
226 184 -230 0
226 185 -231 0
226 186 -232 0
226 187 -233 0
234 189 -235 0
234 190 -236 0
234 191 -237 0
234 192 -238 0
234 193 -239 0
234 194 -240 0
241 196 -242 0
241 197 -243 0
241 198 -244 0
241 199 -245 0
241 200 -246 0
241 201 -247 0
214 169 -215 0
216 171 -217 0
218 173 -219 0
220 175 -221 0
222 177 -223 0
224 179 -225 0
227 182 -228 0
216 183 -229 0
218 184 -230 0
220 185 -231 0
222 186 -232 0
224 187 -233 0
227 189 -235 0
214 190 -236 0
218 191 -237 0
220 192 -238 0
222 193 -239 0
224 194 -240 0
227 196 -242 0
214 197 -243 0
216 198 -244 0
220 199 -245 0
222 200 -246 0
224 201 -247 0
213 226 234 241 0
254 248 249 250 251 252 253 0
227 214 216 218 220 222 224 0
-213 -226 0
-213 -234 0
-213 -241 0
-226 -213 0
-226 -234 0
-226 -241 0
-234 -213 0
-234 -226 0
-234 -241 0
-241 -213 0
-241 -226 0
-241 -234 0
-254 -248 0
-254 -249 0
-254 -250 0
-254 -251 0
-254 -252 0
-254 -253 0
-248 -254 0
-248 -249 0
-248 -250 0
-248 -251 0
-248 -252 0
-248 -253 0
-249 -254 0
-249 -248 0
-249 -250 0
-249 -251 0
-249 -252 0
-249 -253 0
-250 -254 0
-250 -248 0
-250 -249 0
-250 -251 0
-250 -252 0
-250 -253 0
-251 -254 0
-251 -248 0
-251 -249 0
-251 -250 0
-251 -252 0
-251 -253 0
-252 -254 0
-252 -248 0
-252 -249 0
-252 -250 0
-252 -251 0
-252 -253 0
-253 -254 0
-253 -248 0
-253 -249 0
-253 -250 0
-253 -251 0
-253 -252 0
-227 -214 0
-227 -216 0
-227 -218 0
-227 -220 0
-227 -222 0
-227 -224 0
-214 -227 0
-214 -216 0
-214 -218 0
-214 -220 0
-214 -222 0
-214 -224 0
-216 -227 0
-216 -214 0
-216 -218 0
-216 -220 0
-216 -222 0
-216 -224 0
-218 -227 0
-218 -214 0
-218 -216 0
-218 -220 0
-218 -222 0
-218 -224 0
-220 -227 0
-220 -214 0
-220 -216 0
-220 -218 0
-220 -222 0
-220 -224 0
-222 -227 0
-222 -214 0
-222 -216 0
-222 -218 0
-222 -220 0
-222 -224 0
-224 -227 0
-224 -214 0
-224 -216 0
-224 -218 0
-224 -220 0
-224 -222 0
-213 -254 0
-226 -248 0
-234 -249 0
-241 -250 0
-213 -227 0
-226 -214 0
-234 -216 0
-241 -218 0
-254 -227 0
-248 -214 0
-249 -216 0
-250 -218 0
-251 -220 0
-252 -222 0
-253 -224 0
-259 -260 261 0
-259 -262 263 0
-259 -264 265 0
-259 -266 267 0
-259 -268 269 0
-259 -270 271 0
-272 -273 274 0
-272 -262 275 0
-272 -264 276 0
-272 -266 277 0
-272 -268 278 0
-272 -270 279 0
-280 -273 281 0
-280 -260 282 0
-280 -264 283 0
-280 -266 284 0
-280 -268 285 0
-280 -270 286 0
-287 -273 288 0
-287 -260 289 0
-287 -262 290 0
-287 -266 291 0
-287 -268 292 0
-287 -270 293 0
-259 -294 -261 0
-259 -295 -263 0
-259 -296 -265 0
-259 -297 -267 0
-259 -298 -269 0
-259 -299 -271 0
-272 -300 -274 0
-272 -295 -275 0
-272 -296 -276 0
-272 -297 -277 0
-272 -298 -278 0
-272 -299 -279 0
-280 -300 -281 0
-280 -294 -282 0
-280 -296 -283 0
-280 -297 -284 0
-280 -298 -285 0
-280 -299 -286 0
-287 -300 -288 0
-287 -294 -289 0
-287 -295 -290 0
-287 -297 -291 0
-287 -298 -292 0
-287 -299 -293 0
-300 301 0
-294 302 0
-295 303 0
-296 304 0
-273 -301 0
-260 -302 0
-262 -303 0
-264 -304 0
-259 -294 215 0
-259 -295 217 0
-259 -296 219 0
-259 -297 221 0
-259 -298 223 0
-259 -299 225 0
-272 -300 228 0
-272 -295 229 0
-272 -296 230 0
-272 -297 231 0
-272 -298 232 0
-272 -299 233 0
-280 -300 235 0
-280 -294 236 0
-280 -296 237 0
-280 -297 238 0
-280 -298 239 0
-280 -299 240 0
-287 -300 242 0
-287 -294 243 0
-287 -295 244 0
-287 -297 245 0
-287 -298 246 0
-287 -299 247 0
-259 255 0
-272 256 0
-280 257 0
-287 258 0
-273 255 0
-260 256 0
-262 257 0
-264 258 0
273 -255 301 0
260 -256 302 0
262 -257 303 0
264 -258 304 0
259 -215 261 0
259 -217 263 0
259 -219 265 0
259 -221 267 0
259 -223 269 0
259 -225 271 0
272 -228 274 0
272 -229 275 0
272 -230 276 0
272 -231 277 0
272 -232 278 0
272 -233 279 0
280 -235 281 0
280 -236 282 0
280 -237 283 0
280 -238 284 0
280 -239 285 0
280 -240 286 0
287 -242 288 0
287 -243 289 0
287 -244 290 0
287 -245 291 0
287 -246 292 0
287 -247 293 0
300 255 -301 0
294 256 -302 0
295 257 -303 0
296 258 -304 0
259 215 -261 0
259 217 -263 0
259 219 -265 0
259 221 -267 0
259 223 -269 0
259 225 -271 0
272 228 -274 0
272 229 -275 0
272 230 -276 0
272 231 -277 0
272 232 -278 0
272 233 -279 0
280 235 -281 0
280 236 -282 0
280 237 -283 0
280 238 -284 0
280 239 -285 0
280 240 -286 0
287 242 -288 0
287 243 -289 0
287 244 -290 0
287 245 -291 0
287 246 -292 0
287 247 -293 0
260 215 -261 0
262 217 -263 0
264 219 -265 0
266 221 -267 0
268 223 -269 0
270 225 -271 0
273 228 -274 0
262 229 -275 0
264 230 -276 0
266 231 -277 0
268 232 -278 0
270 233 -279 0
273 235 -281 0
260 236 -282 0
264 237 -283 0
266 238 -284 0
268 239 -285 0
270 240 -286 0
273 242 -288 0
260 243 -289 0
262 244 -290 0
266 245 -291 0
268 246 -292 0
270 247 -293 0
259 272 280 287 0
300 294 295 296 297 298 299 0
273 260 262 264 266 268 270 0
-259 -272 0
-259 -280 0
-259 -287 0
-272 -259 0
-272 -280 0
-272 -287 0
-280 -259 0
-280 -272 0
-280 -287 0
-287 -259 0
-287 -272 0
-287 -280 0
-300 -294 0
-300 -295 0
-300 -296 0
-300 -297 0
-300 -298 0
-300 -299 0
-294 -300 0
-294 -295 0
-294 -296 0
-294 -297 0
-294 -298 0
-294 -299 0
-295 -300 0
-295 -294 0
-295 -296 0
-295 -297 0
-295 -298 0
-295 -299 0
-296 -300 0
-296 -294 0
-296 -295 0
-296 -297 0
-296 -298 0
-296 -299 0
-297 -300 0
-297 -294 0
-297 -295 0
-297 -296 0
-297 -298 0
-297 -299 0
-298 -300 0
-298 -294 0
-298 -295 0
-298 -296 0
-298 -297 0
-298 -299 0
-299 -300 0
-299 -294 0
-299 -295 0
-299 -296 0
-299 -297 0
-299 -298 0
-273 -260 0
-273 -262 0
-273 -264 0
-273 -266 0
-273 -268 0
-273 -270 0
-260 -273 0
-260 -262 0
-260 -264 0
-260 -266 0
-260 -268 0
-260 -270 0
-262 -273 0
-262 -260 0
-262 -264 0
-262 -266 0
-262 -268 0
-262 -270 0
-264 -273 0
-264 -260 0
-264 -262 0
-264 -266 0
-264 -268 0
-264 -270 0
-266 -273 0
-266 -260 0
-266 -262 0
-266 -264 0
-266 -268 0
-266 -270 0
-268 -273 0
-268 -260 0
-268 -262 0
-268 -264 0
-268 -266 0
-268 -270 0
-270 -273 0
-270 -260 0
-270 -262 0
-270 -264 0
-270 -266 0
-270 -268 0
-259 -300 0
-272 -294 0
-280 -295 0
-287 -296 0
-259 -273 0
-272 -260 0
-280 -262 0
-287 -264 0
-300 -273 0
-294 -260 0
-295 -262 0
-296 -264 0
-297 -266 0
-298 -268 0
-299 -270 0
-305 -306 307 0
-305 -308 309 0
-305 -310 311 0
-305 -312 313 0
-305 -314 315 0
-305 -316 317 0
-318 -319 320 0
-318 -308 321 0
-318 -310 322 0
-318 -312 323 0
-318 -314 324 0
-318 -316 325 0
-326 -319 327 0
-326 -306 328 0
-326 -310 329 0
-326 -312 330 0
-326 -314 331 0
-326 -316 332 0
-333 -319 334 0
-333 -306 335 0
-333 -308 336 0
-333 -312 337 0
-333 -314 338 0
-333 -316 339 0
-305 -340 -307 0
-305 -341 -309 0
-305 -342 -311 0
-305 -343 -313 0
-305 -344 -315 0
-305 -345 -317 0
-318 -346 -320 0
-318 -341 -321 0
-318 -342 -322 0
-318 -343 -323 0
-318 -344 -324 0
-318 -345 -325 0
-326 -346 -327 0
-326 -340 -328 0
-326 -342 -329 0
-326 -343 -330 0
-326 -344 -331 0
-326 -345 -332 0
-333 -346 -334 0
-333 -340 -335 0
-333 -341 -336 0
-333 -343 -337 0
-333 -344 -338 0
-333 -345 -339 0
-346 347 0
-340 348 0
-341 349 0
-342 350 0
-319 -347 0
-306 -348 0
-308 -349 0
-310 -350 0
-305 -340 261 0
-305 -341 263 0
-305 -342 265 0
-305 -343 267 0
-305 -344 269 0
-305 -345 271 0
-318 -346 274 0
-318 -341 275 0
-318 -342 276 0
-318 -343 277 0
-318 -344 278 0
-318 -345 279 0
-326 -346 281 0
-326 -340 282 0
-326 -342 283 0
-326 -343 284 0
-326 -344 285 0
-326 -345 286 0
-333 -346 288 0
-333 -340 289 0
-333 -341 290 0
-333 -343 291 0
-333 -344 292 0
-333 -345 293 0
-305 301 0
-318 302 0
-326 303 0
-333 304 0
-319 301 0
-306 302 0
-308 303 0
-310 304 0
319 -301 347 0
306 -302 348 0
308 -303 349 0
310 -304 350 0
305 -261 307 0
305 -263 309 0
305 -265 311 0
305 -267 313 0
305 -269 315 0
305 -271 317 0
318 -274 320 0
318 -275 321 0
318 -276 322 0
318 -277 323 0
318 -278 324 0
318 -279 325 0
326 -281 327 0
326 -282 328 0
326 -283 329 0
326 -284 330 0
326 -285 331 0
326 -286 332 0
333 -288 334 0
333 -289 335 0
333 -290 336 0
333 -291 337 0
333 -292 338 0
333 -293 339 0
346 301 -347 0
340 302 -348 0
341 303 -349 0
342 304 -350 0
305 261 -307 0
305 263 -309 0
305 265 -311 0
305 267 -313 0
305 269 -315 0
305 271 -317 0
318 274 -320 0
318 275 -321 0
318 276 -322 0
318 277 -323 0
318 278 -324 0
318 279 -325 0
326 281 -327 0
326 282 -328 0
326 283 -329 0
326 284 -330 0
326 285 -331 0
326 286 -332 0
333 288 -334 0
333 289 -335 0
333 290 -336 0
333 291 -337 0
333 292 -338 0
333 293 -339 0
306 261 -307 0
308 263 -309 0
310 265 -311 0
312 267 -313 0
314 269 -315 0
316 271 -317 0
319 274 -320 0
308 275 -321 0
310 276 -322 0
312 277 -323 0
314 278 -324 0
316 279 -325 0
319 281 -327 0
306 282 -328 0
310 283 -329 0
312 284 -330 0
314 285 -331 0
316 286 -332 0
319 288 -334 0